120 150

58
50
42
48
54
52
57
41
48
41
59
44
56
52
43
58
57
50
46
59
58
49
49
53
57
47
52
46
58
60
46
48
48
50
54
52
50
50
54
46
46
57
50
43
46
54
60
40
59
58
52
54
40
50
49
51
42
58
57
46
50
40
51
53
43
58
50
49
54
47
46
59
46
55
54
48
59
56
42
45
50
50
57
57
51
43
46
44
43
54
50
44
57
49
57
50
51
45
54
51
43
51
54
48
50
41
46
59
43
57
57
41
48
45
51
57
54
43
42
50